NAME : ulysses22.10088.tour
COMMENT : Cost = 4628_10088
COMMENT : Found by LKH [Keld Helsgaun] Thu Nov 16 17:47:05 2017
TYPE : TOUR
DIMENSION : 26
TOUR_SECTION
1
3
2
17
25
18
4
22
24
12
13
14
15
5
6
7
9
10
19
20
21
16
23
11
26
8
-1
EOF
